% demand
num_movements = 19;
loading_factor = [1200, 1750, 1750, 1100, 1600, 1850, 1700, 1850, 1150, 1250, 1050, 1200, 1000, 1850, 1650, 1100, 1050, 1250, 1200];
pickup_time = [0, 0, 1, 2, 2, 2, 4, 4, 4, 4, 4, 5, 5, 7, 8, 8, 8, 8, 8];
delivery_time = [1, 2, 3, 3, 3, 3, 8, 7, 5, 8, 5, 8, 8, 8, 10, 10, 10, 10, 10];

% transporter definition
total_capacity = 7000;
num_decks = 3;
capacity = [3000, 1000, 3000];

% ways out of decks
num_ways_out = 1;
paths_out = array3d(decks, ways_out, decks, [
% ways out of deck d1
2, 3, 0, 

% ways out of deck d2
3, 0, 0, 

% ways out of deck d3
0, 0, 0,	

]);

